data/rand/rand_052.gr
p tdp 15 55
1 4
1 5
1 6
1 10
1 13
1 14
1 15
2 4
2 5
2 7
2 11
2 12
2 14
3 5
3 6
3 8
3 10
3 11
3 13
3 14
4 5
4 7
4 8
4 12
4 15
5 6
5 8
5 11
5 12
5 13
5 14
5 15
6 8
6 10
6 12
6 13
6 15
7 9
7 10
7 14
8 12
8 15
9 10
9 11
9 14
9 15
10 11
10 13
10 14
10 15
11 12
11 13
12 13
12 14
13 15
