solutions/best/rand/rand_052.sol
11
0
1
15
8
2
8
5
13
13
3
9
7
10
9
12
